(declare-fun args_1_8 () (_ BitVec 8))
(declare-fun args_0_8 () (_ BitVec 8))
(assert (let ((a!1 (bvadd #b111 (concat #b01 (ite (= #x00 args_0_8) #b1 #b0))))
      (a!3 (concat (concat #b1111111111111111111111111111111111111111111111111111111111111
                           (ite (= #x2f args_1_8) #b0 #b1))
                   #b1))
      (a!4 (bvadd #xffffffffffffffff
                  (concat #b000000000000000011111111111111111111111100000000000000001010101
                          (ite (= #x00 args_0_8) #b1 #b0))))
      (a!6 (bvadd #b1111111 (concat #b010101 (ite (= #x00 args_0_8) #b1 #b0))))
      (a!7 (bvadd #b111111 (concat #b10101 (ite (= #x00 args_0_8) #b1 #b0))))
      (a!9 (bvadd #b11111 (concat #x5 (ite (= #x00 args_0_8) #b1 #b0))))
      (a!10 (bvadd #xf (concat #b101 (ite (= #x00 args_0_8) #b1 #b0))))
      (a!12 (bvadd #b11 (concat #b1 (ite (= #x00 args_0_8) #b1 #b0))))
      (a!14 (bvxor (bvadd #b1 (ite (= #x00 args_0_8) #b1 #b0))
                   (ite (= #x00 args_0_8) #b1 #b0))))
(let ((a!2 (ite (or (not (= #x2f args_1_8)) (= #b0 ((_ extract 2 2) a!1)))
                (ite (= #x2f args_0_8) #x000000000000003f #x0000000000000040)
                #x000000000000003d))
      (a!5 (concat (concat (bvnot ((_ extract 63 48) a!4))
                           ((_ extract 47 24) a!4))
                   (bvnot ((_ extract 23 8) a!4)))))
(let ((a!8 (concat (concat (concat a!5 ((_ extract 7 7) a!4))
                           (bvnot ((_ extract 6 6) a!6)))
                   ((_ extract 5 5) a!7))))
(let ((a!11 (concat (concat a!8 (bvnot ((_ extract 4 4) a!9)))
                    ((_ extract 3 3) a!10))))
(let ((a!13 (concat (concat a!11 (bvnot ((_ extract 2 2) a!1)))
                    ((_ extract 1 1) a!12))))
(let ((a!15 (bvor (concat a!3 (ite (= #x2f args_0_8) #b0 #b1))
                  (concat a!13 (bvnot a!14)))))
  (and (bvsge #x0000000000000006
              (bvadd #x0000000000000040 (bvmul #xffffffffffffffff a!2)))
       (not (= #x0000000000000000 (bvnot a!15)))
       (not (= #x2d args_1_8))
       (not (= #x00 args_1_8))
       (= #b00 ((_ extract 7 6) args_1_8))))))))))
(define-fun goal () (_ BitVec 64) (bvadd #x000000000041c65c
       (bvshl ((_ zero_extend 32) ((_ zero_extend 24) args_1_8))
              #x0000000000000002))) 
(minimize goal)
(check-sat)